
  32    4
  10   10   10   10

   0   0   0   0   0   3 2 4 6 
   3   1   1   1   0   2 10 3 
   3   0   5   7   1   3 9 8 5 
   8   4   5   0   3   2 8 5 
   7   5   0   6   4   2 31 7 
   2   2   0   3   2   2 31 7 
   8   3   0   2   3   3 19 14 11 
  10   5   0   4   4   5 31 20 16 14 12 
   3   3   3   3   0   5 31 20 19 17 12 
   1   1   0   4   3   4 20 19 16 13 
   6   3   4   2   0   3 20 16 12 
  10   0   4   4   6   1 13 
   3   5   2   0   6   3 30 27 15 
   9   0   6   6   6   4 29 28 23 21 
   8   0   5   2   5   2 29 18 
   3   3   3   8   0   1 17 
   6   4   0   4   3   5 29 28 27 26 24 
  10   3   2   0   4   3 28 22 21 
   3   9   0   6   1   3 30 27 21 
   4   6   3   0   5   1 21 
   8   4   5   0   8   2 26 24 
   3   3   0   6   4   2 26 25 
   4   0   6   4   4   2 27 25 
   5   0   7   3   5   1 25 
   4   0   7   3   1   1 32
   3   4   1   0   6   1 32
   8   5   5   0   2   1 32
   8   6   0   1   5   1 32
   2   7   4   0   5   1 32
   3   0   2   4   4   1 32
   5   2   0   5   4   1 32
   0   0   0   0   0   0 
